c nIsolatedPIs 0
c maxPI 32
p cnf 115 250
c gate 33 16 -32 0
16 -33 0
-32 -33 0
-16 32 33 0
c gate 34 -16 32 0
-16 -34 0
32 -34 0
16 -32 34 0
c gate 35 -33 -34 0
-33 -35 0
-34 -35 0
33 34 35 0
c gate 36 -15 31 0
-15 -36 0
31 -36 0
15 -31 36 0
c gate 37 -14 30 0
-14 -37 0
30 -37 0
14 -30 37 0
c gate 38 14 -30 0
14 -38 0
-30 -38 0
-14 30 38 0
c gate 39 -13 29 0
-13 -39 0
29 -39 0
13 -29 39 0
c gate 40 -11 27 0
-11 -40 0
27 -40 0
11 -27 40 0
c gate 41 11 -27 0
11 -41 0
-27 -41 0
-11 27 41 0
c gate 42 -10 26 0
-10 -42 0
26 -42 0
10 -26 42 0
c gate 43 10 -26 0
10 -43 0
-26 -43 0
-10 26 43 0
c gate 44 9 -25 0
9 -44 0
-25 -44 0
-9 25 44 0
c gate 45 -43 -44 0
-43 -45 0
-44 -45 0
43 44 45 0
c gate 46 8 -24 0
8 -46 0
-24 -46 0
-8 24 46 0
c gate 47 7 -23 0
7 -47 0
-23 -47 0
-7 23 47 0
c gate 48 6 -22 0
6 -48 0
-22 -48 0
-6 22 48 0
c gate 49 -5 21 0
-5 -49 0
21 -49 0
5 -21 49 0
c gate 50 4 20 0
4 -50 0
20 -50 0
-4 -20 50 0
c gate 51 -4 -20 0
-4 -51 0
-20 -51 0
4 20 51 0
c gate 52 -50 -51 0
-50 -52 0
-51 -52 0
50 51 52 0
c gate 53 -3 19 0
-3 -53 0
19 -53 0
3 -19 53 0
c gate 54 -2 18 0
-2 -54 0
18 -54 0
2 -18 54 0
c gate 55 -1 17 0
-1 -55 0
17 -55 0
1 -17 55 0
c gate 56 -54 -55 0
-54 -56 0
-55 -56 0
54 55 56 0
c gate 57 2 -18 0
2 -57 0
-18 -57 0
-2 18 57 0
c gate 58 3 -19 0
3 -58 0
-19 -58 0
-3 19 58 0
c gate 59 -57 -58 0
-57 -59 0
-58 -59 0
57 58 59 0
c gate 60 -56 59 0
-56 -60 0
59 -60 0
56 -59 60 0
c gate 61 -53 -60 0
-53 -61 0
-60 -61 0
53 60 61 0
c gate 62 -52 61 0
-52 -62 0
61 -62 0
52 -61 62 0
c gate 63 5 -21 0
5 -63 0
-21 -63 0
-5 21 63 0
c gate 64 4 -20 0
4 -64 0
-20 -64 0
-4 20 64 0
c gate 65 -63 -64 0
-63 -65 0
-64 -65 0
63 64 65 0
c gate 66 -62 65 0
-62 -66 0
65 -66 0
62 -65 66 0
c gate 67 -49 -66 0
-49 -67 0
-66 -67 0
49 66 67 0
c gate 68 -48 -67 0
-48 -68 0
-67 -68 0
48 67 68 0
c gate 69 -6 22 0
-6 -69 0
22 -69 0
6 -22 69 0
c gate 70 -7 23 0
-7 -70 0
23 -70 0
7 -23 70 0
c gate 71 -69 -70 0
-69 -71 0
-70 -71 0
69 70 71 0
c gate 72 -68 71 0
-68 -72 0
71 -72 0
68 -71 72 0
c gate 73 -47 -72 0
-47 -73 0
-72 -73 0
47 72 73 0
c gate 74 -46 73 0
-46 -74 0
73 -74 0
46 -73 74 0
c gate 75 -9 25 0
-9 -75 0
25 -75 0
9 -25 75 0
c gate 76 -8 24 0
-8 -76 0
24 -76 0
8 -24 76 0
c gate 77 -75 -76 0
-75 -77 0
-76 -77 0
75 76 77 0
c gate 78 -74 77 0
-74 -78 0
77 -78 0
74 -77 78 0
c gate 79 45 -78 0
45 -79 0
-78 -79 0
-45 78 79 0
c gate 80 -42 -79 0
-42 -80 0
-79 -80 0
42 79 80 0
c gate 81 -41 -80 0
-41 -81 0
-80 -81 0
41 80 81 0
c gate 82 -40 -81 0
-40 -82 0
-81 -82 0
40 81 82 0
c gate 83 -12 28 0
-12 -83 0
28 -83 0
12 -28 83 0
c gate 84 -61 64 0
-61 -84 0
64 -84 0
61 -64 84 0
c gate 85 -47 -70 0
-47 -85 0
-70 -85 0
47 70 85 0
c gate 86 -49 -63 0
-49 -86 0
-63 -86 0
49 63 86 0
c gate 87 -48 -69 0
-48 -87 0
-69 -87 0
48 69 87 0
c gate 88 86 87 0
86 -88 0
87 -88 0
-86 -87 88 0
c gate 89 85 88 0
85 -89 0
88 -89 0
-85 -88 89 0
c gate 90 84 89 0
84 -90 0
89 -90 0
-84 -89 90 0
c gate 91 -41 -46 0
-41 -91 0
-46 -91 0
41 46 91 0
c gate 92 45 91 0
45 -92 0
91 -92 0
-45 -91 92 0
c gate 93 90 92 0
90 -93 0
92 -93 0
-90 -92 93 0
c gate 94 -83 -93 0
-83 -94 0
-93 -94 0
83 93 94 0
c gate 95 82 94 0
82 -95 0
94 -95 0
-82 -94 95 0
c gate 96 12 -28 0
12 -96 0
-28 -96 0
-12 28 96 0
c gate 97 13 -29 0
13 -97 0
-29 -97 0
-13 29 97 0
c gate 98 -96 -97 0
-96 -98 0
-97 -98 0
96 97 98 0
c gate 99 -95 98 0
-95 -99 0
98 -99 0
95 -98 99 0
c gate 100 -39 -99 0
-39 -100 0
-99 -100 0
39 99 100 0
c gate 101 -38 -100 0
-38 -101 0
-100 -101 0
38 100 101 0
c gate 102 -37 -101 0
-37 -102 0
-101 -102 0
37 101 102 0
c gate 103 15 -31 0
15 -103 0
-31 -103 0
-15 31 103 0
c gate 104 -102 -103 0
-102 -104 0
-103 -104 0
102 103 104 0
c gate 105 -36 -104 0
-36 -105 0
-104 -105 0
36 104 105 0
c gate 106 35 -105 0
35 -106 0
-105 -106 0
-35 105 106 0
c gate 107 -82 -96 0
-82 -107 0
-96 -107 0
82 96 107 0
c gate 108 -39 -83 0
-39 -108 0
-83 -108 0
39 83 108 0
c gate 109 -107 108 0
-107 -109 0
108 -109 0
107 -108 109 0
c gate 110 -97 -109 0
-97 -110 0
-109 -110 0
97 109 110 0
c gate 111 -37 -110 0
-37 -111 0
-110 -111 0
37 110 111 0
c gate 112 -38 -111 0
-38 -112 0
-111 -112 0
38 111 112 0
c gate 113 -36 -112 0
-36 -113 0
-112 -113 0
36 112 113 0
c gate 114 -103 -113 0
-103 -114 0
-113 -114 0
103 113 114 0
c gate 115 106 -114 0
106 -115 0
-114 -115 0
-106 114 115 0
c PO
115 0
